50
16435

406 915
122 113
399 405
705 143
5 198
433 874
850 891
68 655
966 262
316 214
414 437
833 324
893 328
197 380
1 195
169 846
907 867
421 748
289 151
71 72
498 524
92 532
561 773
749 493
630 789
273 730
652 787
4 69
284 387
162 301
263 992
690 945
936 176
601 419
406 222
133 392
687 4
917 137
809 763
390 502
126 909
839 917
58 578
41 931
442 663
930 745
869 272
106 72
651 618
335 637
